200
1000
297
296
296
296
293
292
292
290
290
289
289
287
284
282
282
279
278
277
277
275
273
273
268
267
267
266
265
264
264
264
261
260
260
259
259
259
257
257
256
253
252
252
252
251
251
251
250
249
245
243
243
243
243
242
242
236
236
236
231
231
231
229
229
229
227
225
223
223
223
222
222
218
217
217
217
216
215
214
212
211
210
210
210
210
208
208
207
207
206
204
203
202
199
198
196
196
195
195
194
191
190
190
190
190
190
187
186
185
184
184
183
183
183
182
181
181
179
179
179
175
175
175
175
174
174
173
173
173
172
171
171
169
169
168
168
167
167
166
166
165
163
163
163
162
160
159
159
159
155
154
153
153
153
151
151
150
149
143
142
141
141
141
140
138
136
135
132
132
130
130
129
128
128
127
126
125
125
125
125
122
122
121
121
119
119
118
113
112
112
112
112
111
110
110
110
109
109
107
103
102
